c Source: inf-euroroad (2-hop neighborhood of node 7)
c n=33, m=50, circuit_rank=18
c Augmented with 12 edges for Eulerian condition
p sp 33
e 2 6
e 17 24
e 25 26
e 2 16
e 3 19
e 3 4
e 2 28
e 3 23
e 16 18
e 6 21
e 8 17
e 2 5
e 8 13
e 1 25
e 6 7
e 17 27
e 9 28
e 18 19
e 5 27
e 5 11
e 1 2
e 11 12
e 12 13
e 2 17
e 3 20
e 4 21
e 17 26
e 16 27
e 6 30
e 15 16
e 16 19
e 4 23
e 13 14
e 2 13
e 6 22
e 10 13
e 2 3
e 6 29
e 3 31
e 4 31
e 5 7
e 9 10
e 13 32
e 14 32
e 15 33
e 16 33
e 17 19
e 20 22
e 24 27
e 29 30
